; benchmark generated from python API
(set-info :status unknown)
(declare-datatypes ((RealState 0)) (((RMk1 (rval1 Real)) (RMk2 (rval2 Real)))))
 (assert
 (forall ((|v9:0| Real) )(exists ((|v8:1_st| RealState) (val!1460 Real) )(forall ((|v7:2| Real) )(exists ((|v6:3_st| RealState) (val!1461 Real) )(forall ((|v5:4| Real) )(exists ((|v4:5_st| RealState) (val!1462 Real) )(forall ((|v3:6| Real) )(exists ((|v2:7_st| RealState) (val!1463 Real) )(forall ((|v1:8| Real) )(exists ((|v0:9_st| RealState) (val!1464 Real) )(let ((?x1060 (* 15.0 |v3:6|)))
 (let (($x687 (<= (+ (+ (* (- 8.0) (rval2 |v0:9_st|)) (* 5.0 (rval2 |v2:7_st|))) ?x1060) 13.0)))
 (let ((?x1042 (+ (+ (* (- 13.0) (rval2 |v0:9_st|)) (* (- 14.0) |v1:8|)) (* (- 10.0) (rval2 |v2:7_st|)))))
 (let ((?x118 (- 16.0)))
 (let (($x1178 (<= (+ (+ (* 17.0 (rval2 |v6:3_st|)) (* 7.0 |v9:0|)) (* (- 3.0) |v7:2|)) ?x118)))
 (let ((?x682 (- 5.0)))
 (let ((?x345 (+ (+ (* (- 6.0) |v7:2|) (* 17.0 (rval2 |v0:9_st|))) (* (- 4.0) (rval2 |v8:1_st|)))))
 (let ((?x279 (+ (+ (* 2.0 (rval2 |v6:3_st|)) (* 3.0 |v7:2|)) (* (- 3.0) (rval2 |v4:5_st|)))))
 (let ((?x1072 (- 14.0)))
 (let ((?x1282 (+ (+ (* (- 8.0) (rval2 |v0:9_st|)) (* (- 1.0) (rval2 |v0:9_st|))) (* 16.0 |v1:8|))))
 (let ((?x771 (- 10.0)))
 (let ((?x381 (+ (+ (* (- 18.0) |v3:6|) (* (- 18.0) (rval2 |v2:7_st|))) (* (- 7.0) |v3:6|))))
 (let (($x405 (and (or (<= ?x381 ?x771) (<= ?x1282 ?x1072)) (and (<= ?x279 9.0) (<= ?x345 ?x682)))))
 (let ((?x448 (- 7.0)))
 (let (($x941 (<= (+ (+ (* (- 19.0) (rval2 |v0:9_st|)) (* 12.0 (rval2 |v2:7_st|))) |v9:0|) ?x448)))
 (let ((?x1089 (+ (+ (* ?x771 (rval2 |v0:9_st|)) (* 8.0 (rval2 |v6:3_st|))) (* (- 11.0) (rval2 |v2:7_st|)))))
 (let ((?x182 (+ (+ (* 14.0 (rval2 |v2:7_st|)) (* 3.0 (rval2 |v4:5_st|))) (* (- 17.0) |v5:4|))))
 (let ((?x855 (rval2 |v2:7_st|)))
 (let ((?x625 (- 9.0)))
 (let ((?x1225 (* ?x625 ?x855)))
 (let (($x380 (<= (+ (+ (* (- 12.0) |v1:8|) (* (- 15.0) (rval2 |v4:5_st|))) ?x1225) 11.0)))
 (let ((?x1372 (- 8.0)))
 (let (($x161 (<= (+ (+ (* 9.0 (rval2 |v0:9_st|)) (* 17.0 |v1:8|)) (* 10.0 |v5:4|)) ?x1372)))
 (let (($x1249 (<= (+ (+ (* (- 11.0) |v1:8|) (* 12.0 |v9:0|)) (* 8.0 (rval2 |v4:5_st|))) 9.0)))
 (let (($x1122 (<= (+ (+ (* ?x118 (rval2 |v8:1_st|)) |v1:8|) (* 13.0 (rval2 |v8:1_st|))) 12.0)))
 (let (($x826 (and (or $x1122 $x1249) (and (<= (+ (+ |v9:0| (* 12.0 |v3:6|)) (* 10.0 |v3:6|)) 11.0) $x161))))
 (let (($x691 (and $x826 (and (or $x380 (<= ?x182 11.0)) (or (<= ?x1089 4.0) $x941)))))
 (let ((?x516 (- 3.0)))
 (let (($x463 (or (<= (+ (+ (rval2 |v8:1_st|) (* (- 18.0) |v5:4|)) |v5:4|) 1.0) (<= (+ (+ (* 17.0 (rval2 |v4:5_st|)) (* 14.0 |v9:0|)) |v5:4|) ?x516))))
 (let (($x886 (<= (+ (+ (* (- 6.0) |v5:4|) (* ?x118 (rval2 |v6:3_st|))) (* 13.0 |v9:0|)) 13.0)))
 (let (($x1146 (<= (+ (+ (* 6.0 |v5:4|) (* ?x1072 (rval2 |v8:1_st|))) (* (- 6.0) |v3:6|)) 12.0)))
 (let ((?x548 (rval2 |v0:9_st|)))
 (let ((?x590 (* 14.0 ?x548)))
 (let (($x503 (<= (+ (+ (* (- 12.0) (rval2 |v8:1_st|)) (* 5.0 (rval2 |v4:5_st|))) ?x590) 9.0)))
 (let (($x1332 (<= (+ (+ (* 16.0 (rval2 |v4:5_st|)) (* 16.0 |v9:0|)) (* 9.0 |v7:2|)) 1.0)))
 (let (($x853 (<= (+ (+ (* 15.0 ?x548) (* (- 15.0) ?x548)) (* 4.0 |v5:4|)) 2.0)))
 (let ((?x630 (- 1.0)))
 (let (($x991 (<= (+ (+ (* 0.0 ?x855) (* (- 13.0) |v9:0|)) (* 4.0 (rval2 |v8:1_st|))) ?x630)))
 (let ((?x250 (- 15.0)))
 (let (($x566 (<= (+ (+ (* (- 13.0) |v7:2|) (* ?x448 ?x855)) (* 6.0 |v9:0|)) ?x250)))
 (let ((?x1194 (+ (+ (* 0.0 |v9:0|) (* (- 18.0) (rval2 |v8:1_st|))) (* 11.0 (rval2 |v4:5_st|)))))
 (let (($x1298 (or (<= (+ (+ (* ?x630 (rval2 |v4:5_st|)) (* (- 4.0) ?x855)) ?x1225) 18.0) (<= ?x1194 ?x516))))
 (let ((?x89 (- 20.0)))
 (let (($x1032 (<= (+ (+ (* ?x89 (rval2 |v8:1_st|)) (* 10.0 |v1:8|)) (* (- 12.0) ?x548)) ?x89)))
 (let ((?x70 (+ (+ (* ?x448 (rval2 |v8:1_st|)) (* 0.0 (rval2 |v8:1_st|))) (* 14.0 |v7:2|))))
 (let (($x784 (and (or (and (<= ?x70 0.0) $x1032) $x1298) (or (or $x566 $x991) (or $x853 $x1332)))))
 (let (($x173 (and (or $x784 (and $x503 (and (or $x1146 $x886) $x463))) (or $x691 (or $x405 (or $x1178 (and (<= ?x1042 5.0) $x687)))))))
 (let (($x945 (not (= |v0:9_st| (RMk1 val!1464)))))
 (let (($x729 (not (= |v2:7_st| (RMk1 val!1463)))))
 (let (($x655 (not (= |v4:5_st| (RMk1 val!1462)))))
 (let (($x501 (not (= |v6:3_st| (RMk1 val!1461)))))
 (let (($x699 (not (= |v8:1_st| (RMk1 val!1460)))))
 (and $x699 $x501 $x655 $x729 $x945 $x173))))))))))))))))))))))))))))))))))))))))))))))))))))))
 )
 )
 )
 )
 )
 )
 )
 )
 )
 )
(check-sat)
